20 1 7
247 188 176 183 457 155 273 464 359 307 542 655 115 435 505 619 587 745 684 518 
839 453 603 120 684 650 103 316 411 852 625 658 39 152 840 847 306 464 310 664 
771 203 670 237 989 175 207 576 919 243 445 109 695 399 229 378 49 683 693 459 
534 669 468 572 820 660 418 125 123 79 140 245 633 810 833 622 336 40 197 254 
282 993 714 328 392 294 705 792 977 750 602 510 418 70 434 238 81 851 714 555 
282 854 800 914 15 632 535 350 23 83 955 656 428 668 983 819 962 688 962 290 
789 563 799 206 984 584 795 64 435 509 619 68 714 770 981 728 753 868 429 128 
3020 3830 7830 7290 4020 7660 8990 3630 4530 8600 40 2410 4230 8030 7980 7580 7380 5930 8220 5240 
58220
